c File: flat100_3_0.col
c
c SOURCE: Joseph Culberson (joe@cs.ualberta.ca)
c DESCRIPTION: Quasi-random coloring problem
c              generated with flatness = 0
c                             probability = 0.072
c                             known coloring = 3
c                             random seed = 1041
c              Creation Date:  Thu Jun  4 18:55:39 1998
c Maximum degree = 8 Minimum degree = 2
c p edge 100 239
c cnf created by edge2cnf
p cnf 300 1117
-1 -2 0
-1 -3 0
-2 -3 0
1 2 3 0
-4 -5 0
-4 -6 0
-5 -6 0
4 5 6 0
-7 -8 0
-7 -9 0
-8 -9 0
7 8 9 0
-10 -11 0
-10 -12 0
-11 -12 0
10 11 12 0
-13 -14 0
-13 -15 0
-14 -15 0
13 14 15 0
-16 -17 0
-16 -18 0
-17 -18 0
16 17 18 0
-19 -20 0
-19 -21 0
-20 -21 0
19 20 21 0
-22 -23 0
-22 -24 0
-23 -24 0
22 23 24 0
-25 -26 0
-25 -27 0
-26 -27 0
25 26 27 0
-28 -29 0
-28 -30 0
-29 -30 0
28 29 30 0
-31 -32 0
-31 -33 0
-32 -33 0
31 32 33 0
-34 -35 0
-34 -36 0
-35 -36 0
34 35 36 0
-37 -38 0
-37 -39 0
-38 -39 0
37 38 39 0
-40 -41 0
-40 -42 0
-41 -42 0
40 41 42 0
-43 -44 0
-43 -45 0
-44 -45 0
43 44 45 0
-46 -47 0
-46 -48 0
-47 -48 0
46 47 48 0
-49 -50 0
-49 -51 0
-50 -51 0
49 50 51 0
-52 -53 0
-52 -54 0
-53 -54 0
52 53 54 0
-55 -56 0
-55 -57 0
-56 -57 0
55 56 57 0
-58 -59 0
-58 -60 0
-59 -60 0
58 59 60 0
-61 -62 0
-61 -63 0
-62 -63 0
61 62 63 0
-64 -65 0
-64 -66 0
-65 -66 0
64 65 66 0
-67 -68 0
-67 -69 0
-68 -69 0
67 68 69 0
-70 -71 0
-70 -72 0
-71 -72 0
70 71 72 0
-73 -74 0
-73 -75 0
-74 -75 0
73 74 75 0
-76 -77 0
-76 -78 0
-77 -78 0
76 77 78 0
-79 -80 0
-79 -81 0
-80 -81 0
79 80 81 0
-82 -83 0
-82 -84 0
-83 -84 0
82 83 84 0
-85 -86 0
-85 -87 0
-86 -87 0
85 86 87 0
-88 -89 0
-88 -90 0
-89 -90 0
88 89 90 0
-91 -92 0
-91 -93 0
-92 -93 0
91 92 93 0
-94 -95 0
-94 -96 0
-95 -96 0
94 95 96 0
-97 -98 0
-97 -99 0
-98 -99 0
97 98 99 0
-100 -101 0
-100 -102 0
-101 -102 0
100 101 102 0
-103 -104 0
-103 -105 0
-104 -105 0
103 104 105 0
-106 -107 0
-106 -108 0
-107 -108 0
106 107 108 0
-109 -110 0
-109 -111 0
-110 -111 0
109 110 111 0
-112 -113 0
-112 -114 0
-113 -114 0
112 113 114 0
-115 -116 0
-115 -117 0
-116 -117 0
115 116 117 0
-118 -119 0
-118 -120 0
-119 -120 0
118 119 120 0
-121 -122 0
-121 -123 0
-122 -123 0
121 122 123 0
-124 -125 0
-124 -126 0
-125 -126 0
124 125 126 0
-127 -128 0
-127 -129 0
-128 -129 0
127 128 129 0
-130 -131 0
-130 -132 0
-131 -132 0
130 131 132 0
-133 -134 0
-133 -135 0
-134 -135 0
133 134 135 0
-136 -137 0
-136 -138 0
-137 -138 0
136 137 138 0
-139 -140 0
-139 -141 0
-140 -141 0
139 140 141 0
-142 -143 0
-142 -144 0
-143 -144 0
142 143 144 0
-145 -146 0
-145 -147 0
-146 -147 0
145 146 147 0
-148 -149 0
-148 -150 0
-149 -150 0
148 149 150 0
-151 -152 0
-151 -153 0
-152 -153 0
151 152 153 0
-154 -155 0
-154 -156 0
-155 -156 0
154 155 156 0
-157 -158 0
-157 -159 0
-158 -159 0
157 158 159 0
-160 -161 0
-160 -162 0
-161 -162 0
160 161 162 0
-163 -164 0
-163 -165 0
-164 -165 0
163 164 165 0
-166 -167 0
-166 -168 0
-167 -168 0
166 167 168 0
-169 -170 0
-169 -171 0
-170 -171 0
169 170 171 0
-172 -173 0
-172 -174 0
-173 -174 0
172 173 174 0
-175 -176 0
-175 -177 0
-176 -177 0
175 176 177 0
-178 -179 0
-178 -180 0
-179 -180 0
178 179 180 0
-181 -182 0
-181 -183 0
-182 -183 0
181 182 183 0
-184 -185 0
-184 -186 0
-185 -186 0
184 185 186 0
-187 -188 0
-187 -189 0
-188 -189 0
187 188 189 0
-190 -191 0
-190 -192 0
-191 -192 0
190 191 192 0
-193 -194 0
-193 -195 0
-194 -195 0
193 194 195 0
-196 -197 0
-196 -198 0
-197 -198 0
196 197 198 0
-199 -200 0
-199 -201 0
-200 -201 0
199 200 201 0
-202 -203 0
-202 -204 0
-203 -204 0
202 203 204 0
-205 -206 0
-205 -207 0
-206 -207 0
205 206 207 0
-208 -209 0
-208 -210 0
-209 -210 0
208 209 210 0
-211 -212 0
-211 -213 0
-212 -213 0
211 212 213 0
-214 -215 0
-214 -216 0
-215 -216 0
214 215 216 0
-217 -218 0
-217 -219 0
-218 -219 0
217 218 219 0
-220 -221 0
-220 -222 0
-221 -222 0
220 221 222 0
-223 -224 0
-223 -225 0
-224 -225 0
223 224 225 0
-226 -227 0
-226 -228 0
-227 -228 0
226 227 228 0
-229 -230 0
-229 -231 0
-230 -231 0
229 230 231 0
-232 -233 0
-232 -234 0
-233 -234 0
232 233 234 0
-235 -236 0
-235 -237 0
-236 -237 0
235 236 237 0
-238 -239 0
-238 -240 0
-239 -240 0
238 239 240 0
-241 -242 0
-241 -243 0
-242 -243 0
241 242 243 0
-244 -245 0
-244 -246 0
-245 -246 0
244 245 246 0
-247 -248 0
-247 -249 0
-248 -249 0
247 248 249 0
-250 -251 0
-250 -252 0
-251 -252 0
250 251 252 0
-253 -254 0
-253 -255 0
-254 -255 0
253 254 255 0
-256 -257 0
-256 -258 0
-257 -258 0
256 257 258 0
-259 -260 0
-259 -261 0
-260 -261 0
259 260 261 0
-262 -263 0
-262 -264 0
-263 -264 0
262 263 264 0
-265 -266 0
-265 -267 0
-266 -267 0
265 266 267 0
-268 -269 0
-268 -270 0
-269 -270 0
268 269 270 0
-271 -272 0
-271 -273 0
-272 -273 0
271 272 273 0
-274 -275 0
-274 -276 0
-275 -276 0
274 275 276 0
-277 -278 0
-277 -279 0
-278 -279 0
277 278 279 0
-280 -281 0
-280 -282 0
-281 -282 0
280 281 282 0
-283 -284 0
-283 -285 0
-284 -285 0
283 284 285 0
-286 -287 0
-286 -288 0
-287 -288 0
286 287 288 0
-289 -290 0
-289 -291 0
-290 -291 0
289 290 291 0
-292 -293 0
-292 -294 0
-293 -294 0
292 293 294 0
-295 -296 0
-295 -297 0
-296 -297 0
295 296 297 0
-298 -299 0
-298 -300 0
-299 -300 0
298 299 300 0
-115 -1 0
-116 -2 0
-117 -3 0
-175 -1 0
-176 -2 0
-177 -3 0
-235 -1 0
-236 -2 0
-237 -3 0
-238 -1 0
-239 -2 0
-240 -3 0
-250 -1 0
-251 -2 0
-252 -3 0
-121 -4 0
-122 -5 0
-123 -6 0
-181 -4 0
-182 -5 0
-183 -6 0
-184 -4 0
-185 -5 0
-186 -6 0
-277 -4 0
-278 -5 0
-279 -6 0
-106 -7 0
-107 -8 0
-108 -9 0
-181 -7 0
-182 -8 0
-183 -9 0
-295 -7 0
-296 -8 0
-297 -9 0
-298 -7 0
-299 -8 0
-300 -9 0
-106 -10 0
-107 -11 0
-108 -12 0
-124 -10 0
-125 -11 0
-126 -12 0
-160 -10 0
-161 -11 0
-162 -12 0
-169 -10 0
-170 -11 0
-171 -12 0
-229 -10 0
-230 -11 0
-231 -12 0
-238 -10 0
-239 -11 0
-240 -12 0
-241 -10 0
-242 -11 0
-243 -12 0
-142 -13 0
-143 -14 0
-144 -15 0
-148 -13 0
-149 -14 0
-150 -15 0
-172 -13 0
-173 -14 0
-174 -15 0
-226 -13 0
-227 -14 0
-228 -15 0
-232 -13 0
-233 -14 0
-234 -15 0
-253 -13 0
-254 -14 0
-255 -15 0
-274 -13 0
-275 -14 0
-276 -15 0
-142 -16 0
-143 -17 0
-144 -18 0
-160 -16 0
-161 -17 0
-162 -18 0
-163 -16 0
-164 -17 0
-165 -18 0
-169 -16 0
-170 -17 0
-171 -18 0
-235 -16 0
-236 -17 0
-237 -18 0
-247 -16 0
-248 -17 0
-249 -18 0
-298 -16 0
-299 -17 0
-300 -18 0
-103 -19 0
-104 -20 0
-105 -21 0
-112 -19 0
-113 -20 0
-114 -21 0
-217 -19 0
-218 -20 0
-219 -21 0
-265 -19 0
-266 -20 0
-267 -21 0
-112 -22 0
-113 -23 0
-114 -24 0
-121 -22 0
-122 -23 0
-123 -24 0
-139 -22 0
-140 -23 0
-141 -24 0
-148 -22 0
-149 -23 0
-150 -24 0
-202 -22 0
-203 -23 0
-204 -24 0
-214 -22 0
-215 -23 0
-216 -24 0
-247 -22 0
-248 -23 0
-249 -24 0
-115 -25 0
-116 -26 0
-117 -27 0
-271 -25 0
-272 -26 0
-273 -27 0
-184 -28 0
-185 -29 0
-186 -30 0
-196 -28 0
-197 -29 0
-198 -30 0
-226 -28 0
-227 -29 0
-228 -30 0
-253 -28 0
-254 -29 0
-255 -30 0
-265 -28 0
-266 -29 0
-267 -30 0
-292 -28 0
-293 -29 0
-294 -30 0
-121 -31 0
-122 -32 0
-123 -33 0
-178 -31 0
-179 -32 0
-180 -33 0
-181 -31 0
-182 -32 0
-183 -33 0
-247 -31 0
-248 -32 0
-249 -33 0
-109 -34 0
-110 -35 0
-111 -36 0
-127 -34 0
-128 -35 0
-129 -36 0
-163 -34 0
-164 -35 0
-165 -36 0
-202 -34 0
-203 -35 0
-204 -36 0
-220 -34 0
-221 -35 0
-222 -36 0
-235 -34 0
-236 -35 0
-237 -36 0
-280 -34 0
-281 -35 0
-282 -36 0
-139 -37 0
-140 -38 0
-141 -39 0
-145 -37 0
-146 -38 0
-147 -39 0
-148 -37 0
-149 -38 0
-150 -39 0
-163 -37 0
-164 -38 0
-165 -39 0
-205 -37 0
-206 -38 0
-207 -39 0
-277 -37 0
-278 -38 0
-279 -39 0
-133 -40 0
-134 -41 0
-135 -42 0
-139 -40 0
-140 -41 0
-141 -42 0
-148 -40 0
-149 -41 0
-150 -42 0
-163 -40 0
-164 -41 0
-165 -42 0
-277 -40 0
-278 -41 0
-279 -42 0
-292 -40 0
-293 -41 0
-294 -42 0
-295 -40 0
-296 -41 0
-297 -42 0
-121 -43 0
-122 -44 0
-123 -45 0
-127 -43 0
-128 -44 0
-129 -45 0
-193 -43 0
-194 -44 0
-195 -45 0
-199 -43 0
-200 -44 0
-201 -45 0
-205 -43 0
-206 -44 0
-207 -45 0
-232 -43 0
-233 -44 0
-234 -45 0
-280 -43 0
-281 -44 0
-282 -45 0
-289 -43 0
-290 -44 0
-291 -45 0
-142 -46 0
-143 -47 0
-144 -48 0
-190 -46 0
-191 -47 0
-192 -48 0
-223 -46 0
-224 -47 0
-225 -48 0
-274 -46 0
-275 -47 0
-276 -48 0
-295 -46 0
-296 -47 0
-297 -48 0
-124 -49 0
-125 -50 0
-126 -51 0
-178 -49 0
-179 -50 0
-180 -51 0
-181 -49 0
-182 -50 0
-183 -51 0
-190 -49 0
-191 -50 0
-192 -51 0
-220 -49 0
-221 -50 0
-222 -51 0
-283 -49 0
-284 -50 0
-285 -51 0
-136 -52 0
-137 -53 0
-138 -54 0
-151 -52 0
-152 -53 0
-153 -54 0
-166 -52 0
-167 -53 0
-168 -54 0
-211 -52 0
-212 -53 0
-213 -54 0
-250 -52 0
-251 -53 0
-252 -54 0
-259 -52 0
-260 -53 0
-261 -54 0
-112 -55 0
-113 -56 0
-114 -57 0
-226 -55 0
-227 -56 0
-228 -57 0
-280 -55 0
-281 -56 0
-282 -57 0
-295 -55 0
-296 -56 0
-297 -57 0
-115 -58 0
-116 -59 0
-117 -60 0
-202 -58 0
-203 -59 0
-204 -60 0
-259 -58 0
-260 -59 0
-261 -60 0
-289 -58 0
-290 -59 0
-291 -60 0
-112 -61 0
-113 -62 0
-114 -63 0
-160 -61 0
-161 -62 0
-162 -63 0
-223 -61 0
-224 -62 0
-225 -63 0
-109 -64 0
-110 -65 0
-111 -66 0
-136 -64 0
-137 -65 0
-138 -66 0
-157 -64 0
-158 -65 0
-159 -66 0
-229 -64 0
-230 -65 0
-231 -66 0
-241 -64 0
-242 -65 0
-243 -66 0
-256 -64 0
-257 -65 0
-258 -66 0
-109 -67 0
-110 -68 0
-111 -69 0
-169 -67 0
-170 -68 0
-171 -69 0
-229 -67 0
-230 -68 0
-231 -69 0
-259 -67 0
-260 -68 0
-261 -69 0
-124 -70 0
-125 -71 0
-126 -72 0
-145 -70 0
-146 -71 0
-147 -72 0
-268 -70 0
-269 -71 0
-270 -72 0
-103 -73 0
-104 -74 0
-105 -75 0
-178 -73 0
-179 -74 0
-180 -75 0
-211 -73 0
-212 -74 0
-213 -75 0
-235 -73 0
-236 -74 0
-237 -75 0
-262 -76 0
-263 -77 0
-264 -78 0
-298 -76 0
-299 -77 0
-300 -78 0
-124 -79 0
-125 -80 0
-126 -81 0
-151 -79 0
-152 -80 0
-153 -81 0
-154 -79 0
-155 -80 0
-156 -81 0
-157 -79 0
-158 -80 0
-159 -81 0
-220 -79 0
-221 -80 0
-222 -81 0
-268 -79 0
-269 -80 0
-270 -81 0
-142 -82 0
-143 -83 0
-144 -84 0
-187 -82 0
-188 -83 0
-189 -84 0
-232 -82 0
-233 -83 0
-234 -84 0
-247 -82 0
-248 -83 0
-249 -84 0
-109 -85 0
-110 -86 0
-111 -87 0
-193 -85 0
-194 -86 0
-195 -87 0
-214 -85 0
-215 -86 0
-216 -87 0
-106 -88 0
-107 -89 0
-108 -90 0
-118 -88 0
-119 -89 0
-120 -90 0
-133 -88 0
-134 -89 0
-135 -90 0
-265 -88 0
-266 -89 0
-267 -90 0
-226 -91 0
-227 -92 0
-228 -93 0
-268 -91 0
-269 -92 0
-270 -93 0
-178 -94 0
-179 -95 0
-180 -96 0
-214 -94 0
-215 -95 0
-216 -96 0
-229 -94 0
-230 -95 0
-231 -96 0
-136 -97 0
-137 -98 0
-138 -99 0
-169 -97 0
-170 -98 0
-171 -99 0
-241 -97 0
-242 -98 0
-243 -99 0
-268 -97 0
-269 -98 0
-270 -99 0
-244 -100 0
-245 -101 0
-246 -102 0
-283 -100 0
-284 -101 0
-285 -102 0
-286 -100 0
-287 -101 0
-288 -102 0
-244 -103 0
-245 -104 0
-246 -105 0
-259 -103 0
-260 -104 0
-261 -105 0
-268 -103 0
-269 -104 0
-270 -105 0
-277 -106 0
-278 -107 0
-279 -108 0
-202 -109 0
-203 -110 0
-204 -111 0
-205 -109 0
-206 -110 0
-207 -111 0
-205 -112 0
-206 -113 0
-207 -114 0
-271 -112 0
-272 -113 0
-273 -114 0
-277 -112 0
-278 -113 0
-279 -114 0
-211 -115 0
-212 -116 0
-213 -117 0
-244 -115 0
-245 -116 0
-246 -117 0
-244 -118 0
-245 -119 0
-246 -120 0
-289 -118 0
-290 -119 0
-291 -120 0
-244 -121 0
-245 -122 0
-246 -123 0
-247 -124 0
-248 -125 0
-249 -126 0
-289 -124 0
-290 -125 0
-291 -126 0
-208 -127 0
-209 -128 0
-210 -129 0
-247 -127 0
-248 -128 0
-249 -129 0
-259 -127 0
-260 -128 0
-261 -129 0
-286 -127 0
-287 -128 0
-288 -129 0
-223 -130 0
-224 -131 0
-225 -132 0
-292 -130 0
-293 -131 0
-294 -132 0
-235 -133 0
-236 -134 0
-237 -135 0
-256 -133 0
-257 -134 0
-258 -135 0
-292 -133 0
-293 -134 0
-294 -135 0
-217 -139 0
-218 -140 0
-219 -141 0
-262 -139 0
-263 -140 0
-264 -141 0
-271 -139 0
-272 -140 0
-273 -141 0
-205 -142 0
-206 -143 0
-207 -144 0
-241 -142 0
-242 -143 0
-243 -144 0
-223 -145 0
-224 -146 0
-225 -147 0
-256 -145 0
-257 -146 0
-258 -147 0
-292 -145 0
-293 -146 0
-294 -147 0
-205 -148 0
-206 -149 0
-207 -150 0
-220 -148 0
-221 -149 0
-222 -150 0
-283 -148 0
-284 -149 0
-285 -150 0
-223 -154 0
-224 -155 0
-225 -156 0
-268 -157 0
-269 -158 0
-270 -159 0
-232 -160 0
-233 -161 0
-234 -162 0
-235 -160 0
-236 -161 0
-237 -162 0
-277 -160 0
-278 -161 0
-279 -162 0
-286 -160 0
-287 -161 0
-288 -162 0
-226 -163 0
-227 -164 0
-228 -165 0
-253 -163 0
-254 -164 0
-255 -165 0
-265 -163 0
-266 -164 0
-267 -165 0
-280 -163 0
-281 -164 0
-282 -165 0
-208 -166 0
-209 -167 0
-210 -168 0
-211 -166 0
-212 -167 0
-213 -168 0
-274 -166 0
-275 -167 0
-276 -168 0
-298 -166 0
-299 -167 0
-300 -168 0
-226 -169 0
-227 -170 0
-228 -171 0
-247 -169 0
-248 -170 0
-249 -171 0
-253 -169 0
-254 -170 0
-255 -171 0
-295 -169 0
-296 -170 0
-297 -171 0
-202 -172 0
-203 -173 0
-204 -174 0
-280 -172 0
-281 -173 0
-282 -174 0
-283 -172 0
-284 -173 0
-285 -174 0
-202 -175 0
-203 -176 0
-204 -177 0
-223 -175 0
-224 -176 0
-225 -177 0
-289 -175 0
-290 -176 0
-291 -177 0
-292 -175 0
-293 -176 0
-294 -177 0
-211 -178 0
-212 -179 0
-213 -180 0
-241 -178 0
-242 -179 0
-243 -180 0
-211 -181 0
-212 -182 0
-213 -183 0
-226 -181 0
-227 -182 0
-228 -183 0
-253 -181 0
-254 -182 0
-255 -183 0
-262 -181 0
-263 -182 0
-264 -183 0
-241 -187 0
-242 -188 0
-243 -189 0
-280 -187 0
-281 -188 0
-282 -189 0
-229 -190 0
-230 -191 0
-231 -192 0
-265 -190 0
-266 -191 0
-267 -192 0
-208 -193 0
-209 -194 0
-210 -195 0
-256 -193 0
-257 -194 0
-258 -195 0
-295 -193 0
-296 -194 0
-297 -195 0
-253 -196 0
-254 -197 0
-255 -198 0
-289 -196 0
-290 -197 0
-291 -198 0
-214 -199 0
-215 -200 0
-216 -201 0
-271 -199 0
-272 -200 0
-273 -201 0
